glpk/models/transportation10.lp
\* Problem: Transportation 10 - College *\

Minimize
 z: + 10 x11 + 21.1 x12 + 25 x13 + 26.4 x14 + 17.1 x15 + 20 x16
 + 21.3 x17 + 20 x21 + 17 x22 + 13.5 x23 + 14 x24 + 25 x25 + 25.3 x26
 + 22.3 x27 + 14 x31 + 40 x32 + 20 x33 + 13 x34 + 12 x35 + 15 x36
 + 25 x37 + 17 x41 + 20 x42 + 15 x43 + 20 x44 + 20 x45 + 22 x46 + 19 x47

Subject To
 c1: - x17 - x16 - x15 - x14 - x13 - x12 - x11 >= -2
 c2: - x27 - x26 - x25 - x24 - x23 - x22 - x21 >= -2
 c3: - x37 - x36 - x35 - x34 - x33 - x32 - x31 >= -2
 c4: - x47 - x46 - x45 - x44 - x43 - x42 - x41 >= -2
 c5: + x41 + x31 + x21 + x11 >= 1
 c6: + x42 + x32 + x22 + x12 >= 1
 c7: + x43 + x33 + x23 + x13 >= 1
 c8: + x44 + x34 + x24 + x14 >= 1
 c9: + x45 + x35 + x25 + x15 >= 1
 c10: + x46 + x36 + x26 + x16 >= 1
 c11: + x47 + x37 + x27 + x17 >= 1
 c12: + 21.3 x17 + 20 x16 + 17.1 x15 + 26.4 x14 + 25 x13 + 21.1 x12
 + 10 x11 <= 33
 c13: + 22.3 x27 + 25.3 x26 + 25 x25 + 14 x24 + 13.5 x23 + 17 x22
 + 20 x21 <= 33
 c14: + 25 x37 + 15 x36 + 12 x35 + 13 x34 + 20 x33 + 40 x32 + 14 x31
 <= 33
 c15: + 19 x47 + 22 x46 + 20 x45 + 20 x44 + 15 x43 + 20 x42 + 17 x41
 <= 33
 c16: + 19 x47 + 22 x46 + 20 x45 + 20 x44 + 15 x43 + 20 x42 + 17 x41
 + 25 x37 + 15 x36 + 12 x35 + 13 x34 + 20 x33 + 40 x32 + 14 x31
 + 22.3 x27 + 25.3 x26 + 25 x25 + 14 x24 + 13.5 x23 + 17 x22 + 20 x21
 + 21.3 x17 + 20 x16 + 17.1 x15 + 26.4 x14 + 25 x13 + 21.1 x12 + 10 x11
 <= 90

Generals
 x11
 x12
 x13
 x14
 x15
 x16
 x17
 x21
 x22
 x23
 x24
 x25
 x26
 x27
 x31
 x32
 x33
 x34
 x35
 x36
 x37
 x41
 x42
 x43
 x44
 x45
 x46
 x47

End
