transportation10.sol
Transportation 10 - College
z = 90.0
x11 = 1.0
x12 = 0.0
x13 = 0.0
x14 = 0.0
x15 = 0.0
x16 = 0.0
x17 = 0.0
x21 = 0.0
x22 = 1.0
x23 = 0.0
x24 = 1.0
x25 = 0.0
x26 = 0.0
x27 = 0.0
x31 = 0.0
x32 = 0.0
x33 = 0.0
x34 = 0.0
x35 = 1.0
x36 = 1.0
x37 = 0.0
x41 = 0.0
x42 = 0.0
x43 = 1.0
x44 = 0.0
x45 = 0.0
x46 = 0.0
x47 = 0.3684210526315789
